p cnf 42 143
-1 -2 -3 0
1 2 -3 0
-1 2 3 0
1 -2 3 0
-6 4 0
-6 -5 0
-4 5 6 0
-3 6 -7 0
3 -6 -7 0
-3 -6 7 0
3 6 7 0
-10 1 0
-10 9 0
-1 -9 10 0
11 8 0
11 10 0
-8 -10 -11 0
11 -12 0
-11 -12 0
-4 8 -14 0
4 -8 -14 0
-4 -8 14 0
4 8 14 0
10 14 -15 0
-10 -14 -15 0
10 -14 15 0
-10 14 15 0
16 13 0
16 15 0
-13 -15 -16 0
-12 16 -17 0
12 -16 -17 0
-12 -16 17 0
12 16 17 0
-9 -14 -18 0
9 14 -18 0
-9 14 18 0
9 -14 18 0
19 13 0
19 18 0
-13 -18 -19 0
10 -19 -20 0
-10 19 -20 0
10 19 20 0
-10 -19 20 0
22 21 0
22 -13 0
-21 13 -22 0
-24 8 0
-24 -23 0
-8 23 24 0
25 -22 0
25 -24 0
22 24 -25 0
-26 -25 0
-26 23 0
25 -23 26 0
-27 20 0
-27 -26 0
-20 26 27 0
28 -18 0
28 13 0
18 -13 -28 0
23 19 -29 0
-23 -19 -29 0
23 -19 29 0
-23 19 29 0
28 29 -30 0
-28 -29 -30 0
28 -29 30 0
-28 29 30 0
32 31 0
32 -4 0
-31 4 -32 0
30 -32 -33 0
-30 32 -33 0
30 32 33 0
-30 -32 33 0
-10 -14 -34 0
10 14 -34 0
-10 14 34 0
10 -14 34 0
-35 -23 0
-35 -21 0
23 21 35 0
36 34 0
36 35 0
-34 -35 -36 0
-37 21 0
-37 24 0
-21 -24 37 0
-38 -36 0
-38 -37 0
36 37 38 0
-33 38 -39 0
33 -38 -39 0
-33 -38 39 0
33 38 39 0
-27 -39 -40 0
27 39 -40 0
-27 39 40 0
27 -39 40 0
-41 -17 0
-41 -40 0
17 40 41 0
-7 41 -42 0
7 -41 -42 0
-7 -41 42 0
7 41 42 0
35 16 -42 -34 28 0
11 -12 -34 -13 8 -9 0
25 32 0
-33 28 -22 34 -32 0
34 3 0
40 -14 -36 25 -30 -8 0
-1 22 -9 15 0
-23 35 0
-23 35 42 -5 0
22 -16 0
37 15 9 0
-12 -32 -5 -4 0
-2 6 12 0
-26 -18 3 -21 30 8 0
12 -15 30 -19 29 0
-6 22 -24 -12 -2 0
-12 10 32 26 14 0
-35 -42 -40 3 0
21 -3 0
-4 37 12 41 -9 0
-40 -3 -29 0
-16 -37 25 0
-8 16 -32 -28 0
40 -8 -2 -41 32 38 0
2 -28 0
11 -35 41 -2 12 -23 0
18 23 31 7 25 -1 0
-18 -20 42 -39 -5 2 0
-41 -14 -13 -40 5 21 0
11 35 0
-37 -26 35 2 -27 0
31 -33 15 -1 5 0
10 32 30 0
42 0
